
******************************************************************************
This program contains Ipopt, a library for large-scale nonlinear optimization.
 Ipopt is released as open source code under the Eclipse Public License (EPL).
         For more information visit http://projects.coin-or.org/Ipopt

This version of Ipopt was compiled from source code available at
    https://github.com/IDAES/Ipopt as part of the Institute for the Design of
    Advanced Energy Systems Process Systems Engineering Framework (IDAES PSE
    Framework) Copyright (c) 2018-2019. See https://github.com/IDAES/idaes-pse.

This version of Ipopt was compiled using HSL, a collection of Fortran codes
    for large-scale scientific computation.  All technical papers, sales and
    publicity material resulting from use of the HSL codes within IPOPT must
    contain the following acknowledgement:
        HSL, a collection of Fortran codes for large-scale scientific
        computation. See http://www.hsl.rl.ac.uk.
******************************************************************************

This is Ipopt version 3.13.2, running with linear solver ma27.

Number of nonzeros in equality constraint Jacobian...:      808
Number of nonzeros in inequality constraint Jacobian.:        0
Number of nonzeros in Lagrangian Hessian.............:      702

Total number of variables............................:      351
                     variables with only lower bounds:      108
                variables with lower and upper bounds:      189
                     variables with only upper bounds:        0
Total number of equality constraints.................:      350
Total number of inequality constraints...............:        0
        inequality constraints with only lower bounds:        0
   inequality constraints with lower and upper bounds:        0
        inequality constraints with only upper bounds:        0

iter    objective    inf_pr   inf_du lg(mu)  ||d||  lg(rg) alpha_du alpha_pr  ls
   0  0.0000000e+00 4.47e-01 2.04e-28  -1.0 0.00e+00    -  0.00e+00 0.00e+00   0
   1  1.3554341e+00 4.84e-01 9.09e+04  -1.0 2.60e+05    -  3.34e-01 2.74e-01h  1
   2  1.4731013e+00 4.75e-01 8.94e+04  -1.0 2.11e+05    -  7.29e-01 1.51e-02h  1
   3  6.5590780e+00 2.96e-01 6.02e+04  -1.0 2.71e+05    -  7.48e-01 3.55e-01h  1
   4  3.1060808e+01 2.57e-02 1.61e+04  -1.0 1.97e+05    -  8.18e-01 9.90e-01h  1
   5  3.4879137e+01 4.62e-04 1.31e+02  -1.0 2.23e+04    -  9.73e-01 9.90e-01h  1
   6  3.4958025e+01 4.73e-06 6.01e+00  -1.0 4.48e+02    -  9.90e-01 9.90e-01h  1
   7  3.5041521e+01 8.33e-05 6.41e+02  -1.0 9.28e+02    -  9.90e-01 9.90e-01H  1
   8  3.5020045e+01 1.06e-04 4.78e+07  -2.5 1.08e+03    -  9.97e-01 2.18e-01h  3
   9  3.4957227e+01 4.01e-05 3.57e+05  -2.5 6.84e+02    -  1.00e+00 9.97e-01H  1
iter    objective    inf_pr   inf_du lg(mu)  ||d||  lg(rg) alpha_du alpha_pr  ls
  10  3.4957084e+01 9.52e-08 7.84e+07  -2.5 1.57e+00    -  1.00e+00 9.97e-01h  1
  11  3.4957085e+01 2.69e-10 2.77e+10  -2.5 4.99e-03    -  1.00e+00 9.97e-01h  1
In iteration 11, 27 Slacks too small, adjusting variable bounds
  12  3.4957085e+01 1.64e-12 9.80e+12  -2.5 1.41e-05    -  1.00e+00 9.97e-01h  1
  13  3.4957085e+01 2.49e-12 9.96e-02  -2.5 2.60e-07    -  1.00e+00 1.00e+00h  1
  14  3.4957083e+01 1.16e-12 9.85e+12  -9.0 3.13e+01    -  1.00e+00 4.86e-04f 12
  15  3.4957082e+01 1.22e-12 9.85e+12  -9.0 3.12e+01    -  1.00e+00 4.88e-04f 12
  16  3.4957079e+01 1.85e-12 9.84e+12  -9.0 3.12e+01    -  1.00e+00 9.77e-04f 11
  17  3.4957078e+01 2.31e-12 9.84e+12  -9.0 3.11e+01    -  1.00e+00 4.88e-04f 12
  18  3.4957077e+01 1.63e-12 9.83e+12  -9.0 3.11e+01    -  1.00e+00 4.88e-04f 12
  19  3.4954246e+01 9.24e-07 2.62e-03  -9.0 3.11e+01    -  1.00e+00 1.00e+00f  1
iter    objective    inf_pr   inf_du lg(mu)  ||d||  lg(rg) alpha_du alpha_pr  ls
  20  3.4954244e+01 1.25e-12 9.31e-10  -9.0 1.59e-02    -  1.00e+00 1.00e+00h  1

Number of Iterations....: 20

                                   (scaled)                 (unscaled)
Objective...............:   3.4954244250172252e+01    3.4954244250172252e+01
Dual infeasibility......:   9.3132257461547852e-10    9.3132257461547852e-10
Constraint violation....:   1.2509993041476264e-12    1.2509993041476264e-12
Complementarity.........:   9.0909100691789946e-10    9.0909100691789946e-10
Overall NLP error.......:   1.2509993041476264e-12    9.3132257461547852e-10


Number of objective function evaluations             = 99
Number of objective gradient evaluations             = 21
Number of equality constraint evaluations            = 99
Number of inequality constraint evaluations          = 0
Number of equality constraint Jacobian evaluations   = 21
Number of inequality constraint Jacobian evaluations = 0
Number of Lagrangian Hessian evaluations             = 20
Total CPU secs in IPOPT (w/o function evaluations)   =      0.029
Total CPU secs in NLP function evaluations           =      0.578

EXIT: Optimal Solution Found.
